unknown
(:binary-propagations  1673
 :decisions            1812
 :del-clause           421
 :final-checks         7
 :max-generation       1
 :max-memory           27.82
 :memory               22.08
 :mk-bool-var          2653
 :mk-clause            690
 :mk-clause-binary     1722
 :num-allocs           146894546
 :num-checks           1
 :propagations         2002
 :quant-instantiations 431
 :restarts             6
 :rlimit-count         1672914
 :time                 0.30)
